p cnf 120 339
// Symetry breaking
-6 0
-5 0
-4 0

// Staircase 1
-2 -38 -3 0
-2 -39 0
2 -39 -3 0
2 39 3 0
-1 -37 39 0
-37 38 0
-1 -40 0
1 -40 39 0
1 40 -39 0
37 0
-5 -42 -4 0
-5 -43 0
5 -43 -4 0
5 43 4 0
-6 -41 43 0
-41 42 0
-6 -44 0
6 -44 43 0
6 44 -43 0
37 0
40 44 0
-40 -44 0


// Staircase 2
-8 -46 -9 0
-8 -47 0
8 -47 -9 0
8 47 9 0
-7 -45 47 0
-45 46 0
-7 -48 0
7 -48 47 0
7 48 -47 0
45 0
-11 -50 -10 0
-11 -51 0
11 -51 -10 0
11 51 10 0
-12 -49 51 0
-49 50 0
-12 -52 0
12 -52 51 0
12 52 -51 0
45 0
48 52 0
-48 -52 0


// Staircase 3
-14 -54 -15 0
-14 -55 0
14 -55 -15 0
14 55 15 0
-13 -53 55 0
-53 54 0
-13 -56 0
13 -56 55 0
13 56 -55 0
53 0
-17 -58 -16 0
-17 -59 0
17 -59 -16 0
17 59 16 0
-18 -57 59 0
-57 58 0
-18 -60 0
18 -60 59 0
18 60 -59 0
53 0
56 60 0
-56 -60 0


// Staircase 4
-20 -62 -21 0
-20 -63 0
20 -63 -21 0
20 63 21 0
-19 -61 63 0
-61 62 0
-19 -64 0
19 -64 63 0
19 64 -63 0
61 0
-23 -66 -22 0
-23 -67 0
23 -67 -22 0
23 67 22 0
-24 -65 67 0
-65 66 0
-24 -68 0
24 -68 67 0
24 68 -67 0
61 0
64 68 0
-64 -68 0


// Staircase 5
-26 -70 -27 0
-26 -71 0
26 -71 -27 0
26 71 27 0
-25 -69 71 0
-69 70 0
-25 -72 0
25 -72 71 0
25 72 -71 0
69 0
-29 -74 -28 0
-29 -75 0
29 -75 -28 0
29 75 28 0
-30 -73 75 0
-73 74 0
-30 -76 0
30 -76 75 0
30 76 -75 0
69 0
72 76 0
-72 -76 0


// Staircase 6
-32 -78 -33 0
-32 -79 0
32 -79 -33 0
32 79 33 0
-31 -77 79 0
-77 78 0
-31 -80 0
31 -80 79 0
31 80 -79 0
77 0
-35 -82 -34 0
-35 -83 0
35 -83 -34 0
35 83 34 0
-36 -81 83 0
-81 82 0
-36 -84 0
36 -84 83 0
36 84 -83 0
77 0
80 84 0
-80 -84 0

// Glue Windows 1
37 0
41 0
38 0
39 -4 0
42 0
-3 43 0

// Glue Windows 2
45 0
49 0
46 0
47 -10 0
50 0
-9 51 0

// Glue Windows 3
53 0
57 0
54 0
55 -16 0
58 0
-15 59 0


// Glue Windows 4
61 0
65 0
62 0
63 -22 0
66 0
-21 67 0

// Glue Windows 5
69 0
73 0
70 0
71 -28 0
74 0
-27 75 0

// Glue Windows 6
77 0
81 0
78 0
79 -34 0
82 0
-33 83 0

// Glue Edge Windows 0 3
40 64 0
39 63 0
39 -22 0
-4 63 0
-4 -22 0
-3 -21 0
-3 67 0
43 -21 0
43 67 0
44 68 0

// Glue Edge Windows 0 4
40 72 0
39 71 0
39 -28 0
-4 71 0
-4 -28 0
-3 -27 0
-3 75 0
43 -27 0
43 75 0
44 76 0

// Glue Edge Windows 0 5
40 80 0
39 79 0
39 -34 0
-4 79 0
-4 -34 0
-3 -33 0
-3 83 0
43 -33 0
43 83 0
44 84 0

// Glue Edge Windows 1 4
48 72 0
47 71 0
47 -28 0
-10 71 0
-10 -28 0
-9 -27 0
-9 75 0
51 -27 0
51 75 0
52 76 0

// Glue Edge Windows 1 5
48 80 0
47 79 0
47 -34 0
-10 79 0
-10 -34 0
-9 -33 0
-9 83 0
51 -33 0
51 83 0
52 84 0

// Glue Edge Windows 2 5
56 80 0
55 79 0
55 -34 0
-16 79 0
-16 -34 0
-15 -33 0
-15 83 0
59 -33 0
59 83 0
60 84 0

// EO 1
-1 88 0
-1 85 0
-7 88 0
-7 86 0
-13 88 0
-13 87 0
-19 89 0
-19 85 0
-25 89 0
-25 86 0
-31 89 0
-31 87 0
1 7 13 19 25 31 0
-85 -86 0
-85 90 0
-86 90 0
-90 -87 0
-88 -89 0

// EO 2
-2 94 0
-2 91 0
-8 94 0
-8 92 0
-14 94 0
-14 93 0
-20 95 0
-20 91 0
-26 95 0
-26 92 0
-32 95 0
-32 93 0
2 8 14 20 26 32 0
-91 -92 0
-91 96 0
-92 96 0
-96 -93 0
-94 -95 0

// EO 3
-3 100 0
-3 97 0
-9 100 0
-9 98 0
-15 100 0
-15 99 0
-21 101 0
-21 97 0
-27 101 0
-27 98 0
-33 101 0
-33 99 0
3 9 15 21 27 33 0
-97 -98 0
-97 102 0
-98 102 0
-102 -99 0
-100 -101 0

// EO 4
-4 106 0
-4 103 0
-10 106 0
-10 104 0
-16 106 0
-16 105 0
-22 107 0
-22 103 0
-28 107 0
-28 104 0
-34 107 0
-34 105 0
4 10 16 22 28 34 0
-103 -104 0
-103 108 0
-104 108 0
-108 -105 0
-106 -107 0

// EO 5
-5 112 0
-5 109 0
-11 112 0
-11 110 0
-17 112 0
-17 111 0
-23 113 0
-23 109 0
-29 113 0
-29 110 0
-35 113 0
-35 111 0
5 11 17 23 29 35 0
-109 -110 0
-109 114 0
-110 114 0
-114 -111 0
-112 -113 0

// EO 6
-6 118 0
-6 115 0
-12 118 0
-12 116 0
-18 118 0
-18 117 0
-24 119 0
-24 115 0
-30 119 0
-30 116 0
-36 119 0
-36 117 0
6 12 18 24 30 36 0
-115 -116 0
-115 120 0
-116 120 0
-120 -117 0
